p cnf 736 2399
-2 3 51 0
2 3 -51 0
-2 -3 -51 0
2 -3 51 0
-7 8 52 0
7 8 -52 0
-7 -8 -52 0
7 -8 52 0
9 -10 53 0
-9 -10 -53 0
9 10 -53 0
-9 10 53 0
11 -15 54 0
-11 -15 -54 0
11 15 -54 0
-11 15 54 0
17 -18 55 0
-17 -18 -55 0
17 18 -55 0
-17 18 55 0
22 -29 56 0
-22 -29 -56 0
22 29 -56 0
-22 29 56 0
32 -33 57 0
-32 -33 -57 0
32 33 -57 0
-32 33 57 0
34 35 58 0
-34 35 -58 0
34 -35 -58 0
-34 -35 58 0
-42 44 59 0
42 44 -59 0
-42 -44 -59 0
42 -44 59 0
-45 48 60 0
45 48 -60 0
-45 -48 -60 0
45 -48 60 0
50 -51 61 0
-50 -51 -61 0
50 51 -61 0
-50 51 61 0
52 -53 62 0
-52 -53 -62 0
52 53 -62 0
-52 53 62 0
54 -55 63 0
-54 -55 -63 0
54 55 -63 0
-54 55 63 0
56 -57 64 0
-56 -57 -64 0
56 57 -64 0
-56 57 64 0
58 -59 65 0
-58 -59 -65 0
58 59 -65 0
-58 59 65 0
60 -61 66 0
-60 -61 -66 0
60 61 -66 0
-60 61 66 0
62 -63 67 0
-62 -63 -67 0
62 63 -67 0
-62 63 67 0
64 -65 68 0
-64 -65 -68 0
64 65 -68 0
-64 65 68 0
-66 -67 68 0
66 -67 -68 0
-66 67 -68 0
66 67 68 0
-1 2 69 0
1 2 -69 0
-1 -2 -69 0
1 -2 69 0
4 5 70 0
-4 5 -70 0
4 -5 -70 0
-4 -5 70 0
-6 -7 71 0
6 -7 -71 0
-6 7 -71 0
6 7 71 0
-9 11 72 0
9 11 -72 0
-9 -11 -72 0
9 -11 72 0
12 -13 73 0
-12 -13 -73 0
12 13 -73 0
-12 13 73 0
14 15 74 0
-14 15 -74 0
14 -15 -74 0
-14 -15 74 0
17 -21 75 0
-17 -21 -75 0
17 21 -75 0
-17 21 75 0
-22 26 76 0
22 26 -76 0
-22 -26 -76 0
22 -26 76 0
30 -32 77 0
-30 -32 -77 0
30 32 -77 0
-30 32 77 0
-33 34 78 0
33 34 -78 0
-33 -34 -78 0
33 -34 78 0
36 37 79 0
-36 37 -79 0
36 -37 -79 0
-36 -37 79 0
38 39 80 0
-38 39 -80 0
38 -39 -80 0
-38 -39 80 0
40 -43 81 0
-40 -43 -81 0
40 43 -81 0
-40 43 81 0
-44 45 82 0
44 45 -82 0
-44 -45 -82 0
44 -45 82 0
68 -69 83 0
-68 -69 -83 0
68 69 -83 0
-68 69 83 0
70 -71 84 0
-70 -71 -84 0
70 71 -84 0
-70 71 84 0
72 -73 85 0
-72 -73 -85 0
72 73 -85 0
-72 73 85 0
74 -75 86 0
-74 -75 -86 0
74 75 -86 0
-74 75 86 0
76 -77 87 0
-76 -77 -87 0
76 77 -87 0
-76 77 87 0
78 -79 88 0
-78 -79 -88 0
78 79 -88 0
-78 79 88 0
80 -81 89 0
-80 -81 -89 0
80 81 -89 0
-80 81 89 0
82 -83 90 0
-82 -83 -90 0
82 83 -90 0
-82 83 90 0
84 -85 91 0
-84 -85 -91 0
84 85 -91 0
-84 85 91 0
86 -87 92 0
-86 -87 -92 0
86 87 -92 0
-86 87 92 0
88 -89 93 0
-88 -89 -93 0
88 89 -93 0
-88 89 93 0
90 -91 94 0
-90 -91 -94 0
90 91 -94 0
-90 91 94 0
92 -93 95 0
-92 -93 -95 0
92 93 -95 0
-92 93 95 0
94 95 0
-94 -95 0
1 -3 96 0
-1 -3 -96 0
1 3 -96 0
-1 3 96 0
-7 -8 97 0
7 -8 -97 0
-7 8 -97 0
7 8 97 0
10 15 98 0
-10 15 -98 0
10 -15 -98 0
-10 -15 98 0
-17 -18 99 0
17 -18 -99 0
-17 18 -99 0
17 18 99 0
20 21 100 0
-20 21 -100 0
20 -21 -100 0
-20 -21 100 0
24 25 101 0
-24 25 -101 0
24 -25 -101 0
-24 -25 101 0
27 -28 102 0
-27 -28 -102 0
27 28 -102 0
-27 28 102 0
31 -34 103 0
-31 -34 -103 0
31 34 -103 0
-31 34 103 0
-35 -36 104 0
35 -36 -104 0
-35 36 -104 0
35 36 104 0
37 -39 105 0
-37 -39 -105 0
37 39 -105 0
-37 39 105 0
40 -41 106 0
-40 -41 -106 0
40 41 -106 0
-40 41 106 0
95 -96 107 0
-95 -96 -107 0
95 96 -107 0
-95 96 107 0
97 -98 108 0
-97 -98 -108 0
97 98 -108 0
-97 98 108 0
99 -100 109 0
-99 -100 -109 0
99 100 -109 0
-99 100 109 0
101 -102 110 0
-101 -102 -110 0
101 102 -110 0
-101 102 110 0
103 -104 111 0
-103 -104 -111 0
103 104 -111 0
-103 104 111 0
105 -106 112 0
-105 -106 -112 0
105 106 -112 0
-105 106 112 0
107 -108 113 0
-107 -108 -113 0
107 108 -113 0
-107 108 113 0
109 -110 114 0
-109 -110 -114 0
109 110 -114 0
-109 110 114 0
111 -112 115 0
-111 -112 -115 0
111 112 -115 0
-111 112 115 0
-113 -114 115 0
113 -114 -115 0
-113 114 -115 0
113 114 115 0
-3 4 116 0
3 4 -116 0
-3 -4 -116 0
3 -4 116 0
-7 -9 117 0
7 -9 -117 0
-7 9 -117 0
7 9 117 0
-11 -12 118 0
11 -12 -118 0
-11 12 -118 0
11 12 118 0
-13 -14 119 0
13 -14 -119 0
-13 14 -119 0
13 14 119 0
-17 18 120 0
17 18 -120 0
-17 -18 -120 0
17 -18 120 0
-20 -21 121 0
20 -21 -121 0
-20 21 -121 0
20 21 121 0
-22 23 122 0
22 23 -122 0
-22 -23 -122 0
22 -23 122 0
24 26 123 0
-24 26 -123 0
24 -26 -123 0
-24 -26 123 0
-27 -29 124 0
27 -29 -124 0
-27 29 -124 0
27 29 124 0
30 31 125 0
-30 31 -125 0
30 -31 -125 0
-30 -31 125 0
-32 -38 126 0
32 -38 -126 0
-32 38 -126 0
32 38 126 0
40 41 127 0
-40 41 -127 0
40 -41 -127 0
-40 -41 127 0
-42 45 128 0
42 45 -128 0
-42 -45 -128 0
42 -45 128 0
46 48 129 0
-46 48 -129 0
46 -48 -129 0
-46 -48 129 0
-49 -50 130 0
49 -50 -130 0
-49 50 -130 0
49 50 130 0
116 -117 131 0
-116 -117 -131 0
116 117 -131 0
-116 117 131 0
118 -119 132 0
-118 -119 -132 0
118 119 -132 0
-118 119 132 0
120 -121 133 0
-120 -121 -133 0
120 121 -133 0
-120 121 133 0
122 -123 134 0
-122 -123 -134 0
122 123 -134 0
-122 123 134 0
124 -125 135 0
-124 -125 -135 0
124 125 -135 0
-124 125 135 0
126 -127 136 0
-126 -127 -136 0
126 127 -136 0
-126 127 136 0
128 -129 137 0
-128 -129 -137 0
128 129 -137 0
-128 129 137 0
130 -131 138 0
-130 -131 -138 0
130 131 -138 0
-130 131 138 0
132 -133 139 0
-132 -133 -139 0
132 133 -139 0
-132 133 139 0
134 -135 140 0
-134 -135 -140 0
134 135 -140 0
-134 135 140 0
136 -137 141 0
-136 -137 -141 0
136 137 -141 0
-136 137 141 0
138 -139 142 0
-138 -139 -142 0
138 139 -142 0
-138 139 142 0
140 -141 143 0
-140 -141 -143 0
140 141 -143 0
-140 141 143 0
142 143 0
-142 -143 0
-2 -5 144 0
2 -5 -144 0
-2 5 -144 0
2 5 144 0
-7 10 145 0
7 10 -145 0
-7 -10 -145 0
7 -10 145 0
-14 -15 146 0
14 -15 -146 0
-14 15 -146 0
14 15 146 0
-16 -17 147 0
16 -17 -147 0
-16 17 -147 0
16 17 147 0
-18 19 148 0
18 19 -148 0
-18 -19 -148 0
18 -19 148 0
22 -24 149 0
-22 -24 -149 0
22 24 -149 0
-22 24 149 0
28 -31 150 0
-28 -31 -150 0
28 31 -150 0
-28 31 150 0
-33 -35 151 0
33 -35 -151 0
-33 35 -151 0
33 35 151 0
36 -39 152 0
-36 -39 -152 0
36 39 -152 0
-36 39 152 0
-41 -43 153 0
41 -43 -153 0
-41 43 -153 0
41 43 153 0
-45 -46 154 0
45 -46 -154 0
-45 46 -154 0
45 46 154 0
-47 -50 155 0
47 -50 -155 0
-47 50 -155 0
47 50 155 0
144 -145 156 0
-144 -145 -156 0
144 145 -156 0
-144 145 156 0
146 -147 157 0
-146 -147 -157 0
146 147 -157 0
-146 147 157 0
148 -149 158 0
-148 -149 -158 0
148 149 -158 0
-148 149 158 0
150 -151 159 0
-150 -151 -159 0
150 151 -159 0
-150 151 159 0
152 -153 160 0
-152 -153 -160 0
152 153 -160 0
-152 153 160 0
154 -155 161 0
-154 -155 -161 0
154 155 -161 0
-154 155 161 0
156 -157 162 0
-156 -157 -162 0
156 157 -162 0
-156 157 162 0
158 -159 163 0
-158 -159 -163 0
158 159 -163 0
-158 159 163 0
160 -161 164 0
-160 -161 -164 0
160 161 -164 0
-160 161 164 0
-162 -163 164 0
162 -163 -164 0
-162 163 -164 0
162 163 164 0
1 4 165 0
-1 4 -165 0
1 -4 -165 0
-1 -4 165 0
5 -7 166 0
-5 -7 -166 0
5 7 -166 0
-5 7 166 0
-9 -10 167 0
9 -10 -167 0
-9 10 -167 0
9 10 167 0
-12 13 168 0
12 13 -168 0
-12 -13 -168 0
12 -13 168 0
-16 -18 169 0
16 -18 -169 0
-16 18 -169 0
16 18 169 0
-20 21 170 0
20 21 -170 0
-20 -21 -170 0
20 -21 170 0
22 23 171 0
-22 23 -171 0
22 -23 -171 0
-22 -23 171 0
-29 30 172 0
29 30 -172 0
-29 -30 -172 0
29 -30 172 0
32 38 173 0
-32 38 -173 0
32 -38 -173 0
-32 -38 173 0
-43 -44 174 0
43 -44 -174 0
-43 44 -174 0
43 44 174 0
49 50 175 0
-49 50 -175 0
49 -50 -175 0
-49 -50 175 0
165 -166 176 0
-165 -166 -176 0
165 166 -176 0
-165 166 176 0
167 -168 177 0
-167 -168 -177 0
167 168 -177 0
-167 168 177 0
169 -170 178 0
-169 -170 -178 0
169 170 -178 0
-169 170 178 0
171 -172 179 0
-171 -172 -179 0
171 172 -179 0
-171 172 179 0
173 -174 180 0
-173 -174 -180 0
173 174 -180 0
-173 174 180 0
175 -176 181 0
-175 -176 -181 0
175 176 -181 0
-175 176 181 0
177 -178 182 0
-177 -178 -182 0
177 178 -182 0
-177 178 182 0
179 -180 183 0
-179 -180 -183 0
179 180 -183 0
-179 180 183 0
-181 -182 183 0
181 -182 -183 0
-181 182 -183 0
181 182 183 0
-1 -2 184 0
1 -2 -184 0
-1 2 -184 0
1 2 184 0
5 9 185 0
-5 9 -185 0
5 -9 -185 0
-5 -9 185 0
-10 -11 186 0
10 -11 -186 0
-10 11 -186 0
10 11 186 0
-13 -14 187 0
13 -14 -187 0
-13 14 -187 0
13 14 187 0
-15 -16 188 0
15 -16 -188 0
-15 16 -188 0
15 16 188 0
-18 -19 189 0
18 -19 -189 0
-18 19 -189 0
18 19 189 0
20 -21 190 0
-20 -21 -190 0
20 21 -190 0
-20 21 190 0
22 -25 191 0
-22 -25 -191 0
22 25 -191 0
-22 25 191 0
26 -30 192 0
-26 -30 -192 0
26 30 -192 0
-26 30 192 0
-36 -37 193 0
36 -37 -193 0
-36 37 -193 0
36 37 193 0
38 -40 194 0
-38 -40 -194 0
38 40 -194 0
-38 40 194 0
-47 -48 195 0
47 -48 -195 0
-47 48 -195 0
47 48 195 0
183 -184 196 0
-183 -184 -196 0
183 184 -196 0
-183 184 196 0
185 -186 197 0
-185 -186 -197 0
185 186 -197 0
-185 186 197 0
187 -188 198 0
-187 -188 -198 0
187 188 -198 0
-187 188 198 0
189 -190 199 0
-189 -190 -199 0
189 190 -199 0
-189 190 199 0
191 -192 200 0
-191 -192 -200 0
191 192 -200 0
-191 192 200 0
193 -194 201 0
-193 -194 -201 0
193 194 -201 0
-193 194 201 0
195 -196 202 0
-195 -196 -202 0
195 196 -202 0
-195 196 202 0
197 -198 203 0
-197 -198 -203 0
197 198 -203 0
-197 198 203 0
199 -200 204 0
-199 -200 -204 0
199 200 -204 0
-199 200 204 0
201 -202 205 0
-201 -202 -205 0
201 202 -205 0
-201 202 205 0
203 -204 206 0
-203 -204 -206 0
203 204 -206 0
-203 204 206 0
205 206 0
-205 -206 0
1 5 207 0
-1 5 -207 0
1 -5 -207 0
-1 -5 207 0
6 10 208 0
-6 10 -208 0
6 -10 -208 0
-6 -10 208 0
-15 -16 209 0
15 -16 -209 0
-15 16 -209 0
15 16 209 0
-17 18 210 0
17 18 -210 0
-17 -18 -210 0
17 -18 210 0
-22 26 211 0
22 26 -211 0
-22 -26 -211 0
22 -26 211 0
27 -29 212 0
-27 -29 -212 0
27 29 -212 0
-27 29 212 0
30 31 213 0
-30 31 -213 0
30 -31 -213 0
-30 -31 213 0
32 33 214 0
-32 33 -214 0
32 -33 -214 0
-32 -33 214 0
-35 36 215 0
35 36 -215 0
-35 -36 -215 0
35 -36 215 0
38 39 216 0
-38 39 -216 0
38 -39 -216 0
-38 -39 216 0
41 42 217 0
-41 42 -217 0
41 -42 -217 0
-41 -42 217 0
46 49 218 0
-46 49 -218 0
46 -49 -218 0
-46 -49 218 0
207 -208 219 0
-207 -208 -219 0
207 208 -219 0
-207 208 219 0
209 -210 220 0
-209 -210 -220 0
209 210 -220 0
-209 210 220 0
211 -212 221 0
-211 -212 -221 0
211 212 -221 0
-211 212 221 0
213 -214 222 0
-213 -214 -222 0
213 214 -222 0
-213 214 222 0
215 -216 223 0
-215 -216 -223 0
215 216 -223 0
-215 216 223 0
217 -218 224 0
-217 -218 -224 0
217 218 -224 0
-217 218 224 0
219 -220 225 0
-219 -220 -225 0
219 220 -225 0
-219 220 225 0
221 -222 226 0
-221 -222 -226 0
221 222 -226 0
-221 222 226 0
223 -224 227 0
-223 -224 -227 0
223 224 -227 0
-223 224 227 0
-225 -226 227 0
225 -226 -227 0
-225 226 -227 0
225 226 227 0
1 6 228 0
-1 6 -228 0
1 -6 -228 0
-1 -6 228 0
7 8 229 0
-7 8 -229 0
7 -8 -229 0
-7 -8 229 0
9 -10 230 0
-9 -10 -230 0
9 10 -230 0
-9 10 230 0
-12 13 231 0
12 13 -231 0
-12 -13 -231 0
12 -13 231 0
-15 19 232 0
15 19 -232 0
-15 -19 -232 0
15 -19 232 0
-22 26 233 0
22 26 -233 0
-22 -26 -233 0
22 -26 233 0
-27 29 234 0
27 29 -234 0
-27 -29 -234 0
27 -29 234 0
30 -32 235 0
-30 -32 -235 0
30 32 -235 0
-30 32 235 0
34 37 236 0
-34 37 -236 0
34 -37 -236 0
-34 -37 236 0
-38 -39 237 0
38 -39 -237 0
-38 39 -237 0
38 39 237 0
42 -44 238 0
-42 -44 -238 0
42 44 -238 0
-42 44 238 0
-47 49 239 0
47 49 -239 0
-47 -49 -239 0
47 -49 239 0
227 -228 240 0
-227 -228 -240 0
227 228 -240 0
-227 228 240 0
229 -230 241 0
-229 -230 -241 0
229 230 -241 0
-229 230 241 0
231 -232 242 0
-231 -232 -242 0
231 232 -242 0
-231 232 242 0
233 -234 243 0
-233 -234 -243 0
233 234 -243 0
-233 234 243 0
235 -236 244 0
-235 -236 -244 0
235 236 -244 0
-235 236 244 0
237 -238 245 0
-237 -238 -245 0
237 238 -245 0
-237 238 245 0
239 -240 246 0
-239 -240 -246 0
239 240 -246 0
-239 240 246 0
241 -242 247 0
-241 -242 -247 0
241 242 -247 0
-241 242 247 0
243 -244 248 0
-243 -244 -248 0
243 244 -248 0
-243 244 248 0
245 -246 249 0
-245 -246 -249 0
245 246 -249 0
-245 246 249 0
247 -248 250 0
-247 -248 -250 0
247 248 -250 0
-247 248 250 0
249 250 0
-249 -250 0
-1 5 251 0
1 5 -251 0
-1 -5 -251 0
1 -5 251 0
7 -8 252 0
-7 -8 -252 0
7 8 -252 0
-7 8 252 0
-9 17 253 0
9 17 -253 0
-9 -17 -253 0
9 -17 253 0
19 20 254 0
-19 20 -254 0
19 -20 -254 0
-19 -20 254 0
23 -25 255 0
-23 -25 -255 0
23 25 -255 0
-23 25 255 0
27 29 256 0
-27 29 -256 0
27 -29 -256 0
-27 -29 256 0
-30 -31 257 0
30 -31 -257 0
-30 31 -257 0
30 31 257 0
-32 34 258 0
32 34 -258 0
-32 -34 -258 0
32 -34 258 0
35 -37 259 0
-35 -37 -259 0
35 37 -259 0
-35 37 259 0
-40 -41 260 0
40 -41 -260 0
-40 41 -260 0
40 41 260 0
43 45 261 0
-43 45 -261 0
43 -45 -261 0
-43 -45 261 0
48 49 262 0
-48 49 -262 0
48 -49 -262 0
-48 -49 262 0
251 -252 263 0
-251 -252 -263 0
251 252 -263 0
-251 252 263 0
253 -254 264 0
-253 -254 -264 0
253 254 -264 0
-253 254 264 0
255 -256 265 0
-255 -256 -265 0
255 256 -265 0
-255 256 265 0
257 -258 266 0
-257 -258 -266 0
257 258 -266 0
-257 258 266 0
259 -260 267 0
-259 -260 -267 0
259 260 -267 0
-259 260 267 0
261 -262 268 0
-261 -262 -268 0
261 262 -268 0
-261 262 268 0
263 -264 269 0
-263 -264 -269 0
263 264 -269 0
-263 264 269 0
265 -266 270 0
-265 -266 -270 0
265 266 -270 0
-265 266 270 0
267 -268 271 0
-267 -268 -271 0
267 268 -271 0
-267 268 271 0
-269 -270 271 0
269 -270 -271 0
-269 270 -271 0
269 270 271 0
-1 3 272 0
1 3 -272 0
-1 -3 -272 0
1 -3 272 0
-7 -10 273 0
7 -10 -273 0
-7 10 -273 0
7 10 273 0
-13 14 274 0
13 14 -274 0
-13 -14 -274 0
13 -14 274 0
-15 21 275 0
15 21 -275 0
-15 -21 -275 0
15 -21 275 0
23 -26 276 0
-23 -26 -276 0
23 26 -276 0
-23 26 276 0
-28 30 277 0
28 30 -277 0
-28 -30 -277 0
28 -30 277 0
33 -36 278 0
-33 -36 -278 0
33 36 -278 0
-33 36 278 0
37 41 279 0
-37 41 -279 0
37 -41 -279 0
-37 -41 279 0
44 -48 280 0
-44 -48 -280 0
44 48 -280 0
-44 48 280 0
-49 -50 281 0
49 -50 -281 0
-49 50 -281 0
49 50 281 0
272 -273 282 0
-272 -273 -282 0
272 273 -282 0
-272 273 282 0
274 -275 283 0
-274 -275 -283 0
274 275 -283 0
-274 275 283 0
276 -277 284 0
-276 -277 -284 0
276 277 -284 0
-276 277 284 0
278 -279 285 0
-278 -279 -285 0
278 279 -285 0
-278 279 285 0
280 -281 286 0
-280 -281 -286 0
280 281 -286 0
-280 281 286 0
282 -283 287 0
-282 -283 -287 0
282 283 -287 0
-282 283 287 0
284 -285 288 0
-284 -285 -288 0
284 285 -288 0
-284 285 288 0
-286 -287 288 0
286 -287 -288 0
-286 287 -288 0
286 287 288 0
-1 2 289 0
1 2 -289 0
-1 -2 -289 0
1 -2 289 0
6 -7 290 0
-6 -7 -290 0
6 7 -290 0
-6 7 290 0
8 -9 291 0
-8 -9 -291 0
8 9 -291 0
-8 9 291 0
10 -13 292 0
-10 -13 -292 0
10 13 -292 0
-10 13 292 0
-14 -21 293 0
14 -21 -293 0
-14 21 -293 0
14 21 293 0
-23 -24 294 0
23 -24 -294 0
-23 24 -294 0
23 24 294 0
31 32 295 0
-31 32 -295 0
31 -32 -295 0
-31 -32 295 0
-35 36 296 0
35 36 -296 0
-35 -36 -296 0
35 -36 296 0
37 -38 297 0
-37 -38 -297 0
37 38 -297 0
-37 38 297 0
-41 -44 298 0
41 -44 -298 0
-41 44 -298 0
41 44 298 0
45 46 299 0
-45 46 -299 0
45 -46 -299 0
-45 -46 299 0
-48 50 300 0
48 50 -300 0
-48 -50 -300 0
48 -50 300 0
289 -290 301 0
-289 -290 -301 0
289 290 -301 0
-289 290 301 0
291 -292 302 0
-291 -292 -302 0
291 292 -302 0
-291 292 302 0
293 -294 303 0
-293 -294 -303 0
293 294 -303 0
-293 294 303 0
295 -296 304 0
-295 -296 -304 0
295 296 -304 0
-295 296 304 0
297 -298 305 0
-297 -298 -305 0
297 298 -305 0
-297 298 305 0
299 -300 306 0
-299 -300 -306 0
299 300 -306 0
-299 300 306 0
301 -302 307 0
-301 -302 -307 0
301 302 -307 0
-301 302 307 0
303 -304 308 0
-303 -304 -308 0
303 304 -308 0
-303 304 308 0
305 -306 309 0
-305 -306 -309 0
305 306 -309 0
-305 306 309 0
-307 -308 309 0
307 -308 -309 0
-307 308 -309 0
307 308 309 0
-2 3 310 0
2 3 -310 0
-2 -3 -310 0
2 -3 310 0
-5 -9 311 0
5 -9 -311 0
-5 9 -311 0
5 9 311 0
10 -12 312 0
-10 -12 -312 0
10 12 -312 0
-10 12 312 0
-13 16 313 0
13 16 -313 0
-13 -16 -313 0
13 -16 313 0
18 -19 314 0
-18 -19 -314 0
18 19 -314 0
-18 19 314 0
20 -22 315 0
-20 -22 -315 0
20 22 -315 0
-20 22 315 0
-24 27 316 0
24 27 -316 0
-24 -27 -316 0
24 -27 316 0
28 -32 317 0
-28 -32 -317 0
28 32 -317 0
-28 32 317 0
33 -34 318 0
-33 -34 -318 0
33 34 -318 0
-33 34 318 0
-35 -36 319 0
35 -36 -319 0
-35 36 -319 0
35 36 319 0
37 38 320 0
-37 38 -320 0
37 -38 -320 0
-37 -38 320 0
-40 43 321 0
40 43 -321 0
-40 -43 -321 0
40 -43 321 0
45 -46 322 0
-45 -46 -322 0
45 46 -322 0
-45 46 322 0
-48 49 323 0
48 49 -323 0
-48 -49 -323 0
48 -49 323 0
309 -310 324 0
-309 -310 -324 0
309 310 -324 0
-309 310 324 0
311 -312 325 0
-311 -312 -325 0
311 312 -325 0
-311 312 325 0
313 -314 326 0
-313 -314 -326 0
313 314 -326 0
-313 314 326 0
315 -316 327 0
-315 -316 -327 0
315 316 -327 0
-315 316 327 0
317 -318 328 0
-317 -318 -328 0
317 318 -328 0
-317 318 328 0
319 -320 329 0
-319 -320 -329 0
319 320 -329 0
-319 320 329 0
321 -322 330 0
-321 -322 -330 0
321 322 -330 0
-321 322 330 0
323 -324 331 0
-323 -324 -331 0
323 324 -331 0
-323 324 331 0
325 -326 332 0
-325 -326 -332 0
325 326 -332 0
-325 326 332 0
327 -328 333 0
-327 -328 -333 0
327 328 -333 0
-327 328 333 0
329 -330 334 0
-329 -330 -334 0
329 330 -334 0
-329 330 334 0
331 -332 335 0
-331 -332 -335 0
331 332 -335 0
-331 332 335 0
333 -334 336 0
-333 -334 -336 0
333 334 -336 0
-333 334 336 0
335 336 0
-335 -336 0
7 11 337 0
-7 11 -337 0
7 -11 -337 0
-7 -11 337 0
-13 -14 338 0
13 -14 -338 0
-13 14 -338 0
13 14 338 0
15 -17 339 0
-15 -17 -339 0
15 17 -339 0
-15 17 339 0
20 -22 340 0
-20 -22 -340 0
20 22 -340 0
-20 22 340 0
27 -31 341 0
-27 -31 -341 0
27 31 -341 0
-27 31 341 0
32 33 342 0
-32 33 -342 0
32 -33 -342 0
-32 -33 342 0
-35 36 343 0
35 36 -343 0
-35 -36 -343 0
35 -36 343 0
37 38 344 0
-37 38 -344 0
37 -38 -344 0
-37 -38 344 0
39 41 345 0
-39 41 -345 0
39 -41 -345 0
-39 -41 345 0
-46 49 346 0
46 49 -346 0
-46 -49 -346 0
46 -49 346 0
337 -338 347 0
-337 -338 -347 0
337 338 -347 0
-337 338 347 0
339 -340 348 0
-339 -340 -348 0
339 340 -348 0
-339 340 348 0
341 -342 349 0
-341 -342 -349 0
341 342 -349 0
-341 342 349 0
343 -344 350 0
-343 -344 -350 0
343 344 -350 0
-343 344 350 0
345 -346 351 0
-345 -346 -351 0
345 346 -351 0
-345 346 351 0
347 -348 352 0
-347 -348 -352 0
347 348 -352 0
-347 348 352 0
349 -350 353 0
-349 -350 -353 0
349 350 -353 0
-349 350 353 0
-351 -352 353 0
351 -352 -353 0
-351 352 -353 0
351 352 353 0
-6 7 354 0
6 7 -354 0
-6 -7 -354 0
6 -7 354 0
9 14 355 0
-9 14 -355 0
9 -14 -355 0
-9 -14 355 0
-17 -18 356 0
17 -18 -356 0
-17 18 -356 0
17 18 356 0
19 -21 357 0
-19 -21 -357 0
19 21 -357 0
-19 21 357 0
23 -26 358 0
-23 -26 -358 0
23 26 -358 0
-23 26 358 0
-28 29 359 0
28 29 -359 0
-28 -29 -359 0
28 -29 359 0
-31 36 360 0
31 36 -360 0
-31 -36 -360 0
31 -36 360 0
37 40 361 0
-37 40 -361 0
37 -40 -361 0
-37 -40 361 0
-43 -45 362 0
43 -45 -362 0
-43 45 -362 0
43 45 362 0
46 -49 363 0
-46 -49 -363 0
46 49 -363 0
-46 49 363 0
354 -355 364 0
-354 -355 -364 0
354 355 -364 0
-354 355 364 0
356 -357 365 0
-356 -357 -365 0
356 357 -365 0
-356 357 365 0
358 -359 366 0
-358 -359 -366 0
358 359 -366 0
-358 359 366 0
360 -361 367 0
-360 -361 -367 0
360 361 -367 0
-360 361 367 0
362 -363 368 0
-362 -363 -368 0
362 363 -368 0
-362 363 368 0
364 -365 369 0
-364 -365 -369 0
364 365 -369 0
-364 365 369 0
366 -367 370 0
-366 -367 -370 0
366 367 -370 0
-366 367 370 0
-368 -369 370 0
368 -369 -370 0
-368 369 -370 0
368 369 370 0
-2 3 371 0
2 3 -371 0
-2 -3 -371 0
2 -3 371 0
-5 6 372 0
5 6 -372 0
-5 -6 -372 0
5 -6 372 0
8 9 373 0
-8 9 -373 0
8 -9 -373 0
-8 -9 373 0
12 -13 374 0
-12 -13 -374 0
12 13 -374 0
-12 13 374 0
-14 16 375 0
14 16 -375 0
-14 -16 -375 0
14 -16 375 0
-19 20 376 0
19 20 -376 0
-19 -20 -376 0
19 -20 376 0
24 -28 377 0
-24 -28 -377 0
24 28 -377 0
-24 28 377 0
29 34 378 0
-29 34 -378 0
29 -34 -378 0
-29 -34 378 0
-37 38 379 0
37 38 -379 0
-37 -38 -379 0
37 -38 379 0
-39 -40 380 0
39 -40 -380 0
-39 40 -380 0
39 40 380 0
41 45 381 0
-41 45 -381 0
41 -45 -381 0
-41 -45 381 0
-47 -48 382 0
47 -48 -382 0
-47 48 -382 0
47 48 382 0
370 -371 383 0
-370 -371 -383 0
370 371 -383 0
-370 371 383 0
372 -373 384 0
-372 -373 -384 0
372 373 -384 0
-372 373 384 0
374 -375 385 0
-374 -375 -385 0
374 375 -385 0
-374 375 385 0
376 -377 386 0
-376 -377 -386 0
376 377 -386 0
-376 377 386 0
378 -379 387 0
-378 -379 -387 0
378 379 -387 0
-378 379 387 0
380 -381 388 0
-380 -381 -388 0
380 381 -388 0
-380 381 388 0
382 -383 389 0
-382 -383 -389 0
382 383 -389 0
-382 383 389 0
384 -385 390 0
-384 -385 -390 0
384 385 -390 0
-384 385 390 0
386 -387 391 0
-386 -387 -391 0
386 387 -391 0
-386 387 391 0
388 -389 392 0
-388 -389 -392 0
388 389 -392 0
-388 389 392 0
390 -391 393 0
-390 -391 -393 0
390 391 -393 0
-390 391 393 0
392 393 0
-392 -393 0
-1 -2 394 0
1 -2 -394 0
-1 2 -394 0
1 2 394 0
4 -5 395 0
-4 -5 -395 0
4 5 -395 0
-4 5 395 0
10 -12 396 0
-10 -12 -396 0
10 12 -396 0
-10 12 396 0
13 16 397 0
-13 16 -397 0
13 -16 -397 0
-13 -16 397 0
-17 20 398 0
17 20 -398 0
-17 -20 -398 0
17 -20 398 0
-22 -23 399 0
22 -23 -399 0
-22 23 -399 0
22 23 399 0
-27 28 400 0
27 28 -400 0
-27 -28 -400 0
27 -28 400 0
-30 -31 401 0
30 -31 -401 0
-30 31 -401 0
30 31 401 0
-32 -34 402 0
32 -34 -402 0
-32 34 -402 0
32 34 402 0
37 -40 403 0
-37 -40 -403 0
37 40 -403 0
-37 40 403 0
-42 43 404 0
42 43 -404 0
-42 -43 -404 0
42 -43 404 0
-47 49 405 0
47 49 -405 0
-47 -49 -405 0
47 -49 405 0
394 -395 406 0
-394 -395 -406 0
394 395 -406 0
-394 395 406 0
396 -397 407 0
-396 -397 -407 0
396 397 -407 0
-396 397 407 0
398 -399 408 0
-398 -399 -408 0
398 399 -408 0
-398 399 408 0
400 -401 409 0
-400 -401 -409 0
400 401 -409 0
-400 401 409 0
402 -403 410 0
-402 -403 -410 0
402 403 -410 0
-402 403 410 0
404 -405 411 0
-404 -405 -411 0
404 405 -411 0
-404 405 411 0
406 -407 412 0
-406 -407 -412 0
406 407 -412 0
-406 407 412 0
408 -409 413 0
-408 -409 -413 0
408 409 -413 0
-408 409 413 0
410 -411 414 0
-410 -411 -414 0
410 411 -414 0
-410 411 414 0
-412 -413 414 0
412 -413 -414 0
-412 413 -414 0
412 413 414 0
-1 3 415 0
1 3 -415 0
-1 -3 -415 0
1 -3 415 0
4 -5 416 0
-4 -5 -416 0
4 5 -416 0
-4 5 416 0
8 10 417 0
-8 10 -417 0
8 -10 -417 0
-8 -10 417 0
-11 -12 418 0
11 -12 -418 0
-11 12 -418 0
11 12 418 0
14 16 419 0
-14 16 -419 0
14 -16 -419 0
-14 -16 419 0
-20 -21 420 0
20 -21 -420 0
-20 21 -420 0
20 21 420 0
24 25 421 0
-24 25 -421 0
24 -25 -421 0
-24 -25 421 0
28 -29 422 0
-28 -29 -422 0
28 29 -422 0
-28 29 422 0
-37 38 423 0
37 38 -423 0
-37 -38 -423 0
37 -38 423 0
-39 -42 424 0
39 -42 -424 0
-39 42 -424 0
39 42 424 0
-44 45 425 0
44 45 -425 0
-44 -45 -425 0
44 -45 425 0
48 -49 426 0
-48 -49 -426 0
48 49 -426 0
-48 49 426 0
415 -416 427 0
-415 -416 -427 0
415 416 -427 0
-415 416 427 0
417 -418 428 0
-417 -418 -428 0
417 418 -428 0
-417 418 428 0
419 -420 429 0
-419 -420 -429 0
419 420 -429 0
-419 420 429 0
421 -422 430 0
-421 -422 -430 0
421 422 -430 0
-421 422 430 0
423 -424 431 0
-423 -424 -431 0
423 424 -431 0
-423 424 431 0
425 -426 432 0
-425 -426 -432 0
425 426 -432 0
-425 426 432 0
427 -428 433 0
-427 -428 -433 0
427 428 -433 0
-427 428 433 0
429 -430 434 0
-429 -430 -434 0
429 430 -434 0
-429 430 434 0
431 -432 435 0
-431 -432 -435 0
431 432 -435 0
-431 432 435 0
-433 -434 435 0
433 -434 -435 0
-433 434 -435 0
433 434 435 0
2 -3 436 0
-2 -3 -436 0
2 3 -436 0
-2 3 436 0
6 8 437 0
-6 8 -437 0
6 -8 -437 0
-6 -8 437 0
-9 11 438 0
9 11 -438 0
-9 -11 -438 0
9 -11 438 0
12 13 439 0
-12 13 -439 0
12 -13 -439 0
-12 -13 439 0
-17 18 440 0
17 18 -440 0
-17 -18 -440 0
17 -18 440 0
-22 -23 441 0
22 -23 -441 0
-22 23 -441 0
22 23 441 0
-25 -27 442 0
25 -27 -442 0
-25 27 -442 0
25 27 442 0
-28 -29 443 0
28 -29 -443 0
-28 29 -443 0
28 29 443 0
-30 34 444 0
30 34 -444 0
-30 -34 -444 0
30 -34 444 0
36 37 445 0
-36 37 -445 0
36 -37 -445 0
-36 -37 445 0
39 40 446 0
-39 40 -446 0
39 -40 -446 0
-39 -40 446 0
-44 -45 447 0
44 -45 -447 0
-44 45 -447 0
44 45 447 0
46 50 448 0
-46 50 -448 0
46 -50 -448 0
-46 -50 448 0
436 -437 449 0
-436 -437 -449 0
436 437 -449 0
-436 437 449 0
438 -439 450 0
-438 -439 -450 0
438 439 -450 0
-438 439 450 0
440 -441 451 0
-440 -441 -451 0
440 441 -451 0
-440 441 451 0
442 -443 452 0
-442 -443 -452 0
442 443 -452 0
-442 443 452 0
444 -445 453 0
-444 -445 -453 0
444 445 -453 0
-444 445 453 0
446 -447 454 0
-446 -447 -454 0
446 447 -454 0
-446 447 454 0
448 -449 455 0
-448 -449 -455 0
448 449 -455 0
-448 449 455 0
450 -451 456 0
-450 -451 -456 0
450 451 -456 0
-450 451 456 0
452 -453 457 0
-452 -453 -457 0
452 453 -457 0
-452 453 457 0
454 -455 458 0
-454 -455 -458 0
454 455 -458 0
-454 455 458 0
456 -457 459 0
-456 -457 -459 0
456 457 -459 0
-456 457 459 0
458 459 0
-458 -459 0
-5 7 460 0
5 7 -460 0
-5 -7 -460 0
5 -7 460 0
-9 10 461 0
9 10 -461 0
-9 -10 -461 0
9 -10 461 0
11 -15 462 0
-11 -15 -462 0
11 15 -462 0
-11 15 462 0
17 -19 463 0
-17 -19 -463 0
17 19 -463 0
-17 19 463 0
-27 29 464 0
27 29 -464 0
-27 -29 -464 0
27 -29 464 0
30 35 465 0
-30 35 -465 0
30 -35 -465 0
-30 -35 465 0
-36 -37 466 0
36 -37 -466 0
-36 37 -466 0
36 37 466 0
-38 -40 467 0
38 -40 -467 0
-38 40 -467 0
38 40 467 0
-41 -42 468 0
41 -42 -468 0
-41 42 -468 0
41 42 468 0
43 -45 469 0
-43 -45 -469 0
43 45 -469 0
-43 45 469 0
-46 -49 470 0
46 -49 -470 0
-46 49 -470 0
46 49 470 0
460 -461 471 0
-460 -461 -471 0
460 461 -471 0
-460 461 471 0
462 -463 472 0
-462 -463 -472 0
462 463 -472 0
-462 463 472 0
464 -465 473 0
-464 -465 -473 0
464 465 -473 0
-464 465 473 0
466 -467 474 0
-466 -467 -474 0
466 467 -474 0
-466 467 474 0
468 -469 475 0
-468 -469 -475 0
468 469 -475 0
-468 469 475 0
470 -471 476 0
-470 -471 -476 0
470 471 -476 0
-470 471 476 0
472 -473 477 0
-472 -473 -477 0
472 473 -477 0
-472 473 477 0
474 -475 478 0
-474 -475 -478 0
474 475 -478 0
-474 475 478 0
-476 -477 478 0
476 -477 -478 0
-476 477 -478 0
476 477 478 0
-12 479 0
-24 479 0
-12 -24 480 0
-23 479 0
-12 -23 480 0
-24 -23 480 0
-12 -24 -23 481 0
-22 482 0
-21 482 0
-22 -21 483 0
-20 482 0
-22 -20 483 0
-21 -20 483 0
-22 -21 -20 484 0
-479 485 0
-480 486 0
-481 487 0
-482 485 0
-483 486 0
-484 487 0
-479 -482 486 0
-479 -483 487 0
-479 -484 488 0
-480 -482 487 0
-480 -483 488 0
-480 -484 489 0
-481 -482 488 0
-481 -483 489 0
-481 -484 490 0
-19 491 0
-18 491 0
-19 -18 492 0
-17 491 0
-19 -17 492 0
-18 -17 492 0
-19 -18 -17 493 0
-16 494 0
-15 494 0
-16 -15 495 0
-14 494 0
-16 -14 495 0
-15 -14 495 0
-16 -15 -14 496 0
-491 497 0
-492 498 0
-493 499 0
-494 497 0
-495 498 0
-496 499 0
-491 -494 498 0
-491 -495 499 0
-491 -496 500 0
-492 -494 499 0
-492 -495 500 0
-492 -496 501 0
-493 -494 500 0
-493 -495 501 0
-493 -496 502 0
-13 503 0
-25 503 0
-13 -25 504 0
-11 503 0
-13 -11 504 0
-25 -11 504 0
-13 -25 -11 505 0
-10 506 0
-9 506 0
-10 -9 507 0
-8 506 0
-10 -8 507 0
-9 -8 507 0
-10 -9 -8 508 0
-503 509 0
-504 510 0
-505 511 0
-506 509 0
-507 510 0
-508 511 0
-503 -506 510 0
-503 -507 511 0
-503 -508 512 0
-504 -506 511 0
-504 -507 512 0
-504 -508 513 0
-505 -506 512 0
-505 -507 513 0
-505 -508 514 0
-7 515 0
-6 515 0
-7 -6 516 0
-5 515 0
-7 -5 516 0
-6 -5 516 0
-7 -6 -5 517 0
-4 518 0
-3 518 0
-4 -3 519 0
-2 520 0
-1 520 0
-2 -1 521 0
-37 520 0
-2 -37 521 0
-1 -37 521 0
-2 -1 -37 522 0
-518 523 0
-519 524 0
-520 523 0
-521 524 0
-522 525 0
-518 -520 524 0
-518 -521 525 0
-518 -522 526 0
-519 -520 525 0
-519 -521 526 0
-519 -522 527 0
-515 528 0
-516 529 0
-517 530 0
-523 528 0
-524 529 0
-525 530 0
-526 531 0
-527 532 0
-515 -523 529 0
-515 -524 530 0
-515 -525 531 0
-515 -526 532 0
-515 -527 533 0
-516 -523 530 0
-516 -524 531 0
-516 -525 532 0
-516 -526 533 0
-516 -527 534 0
-517 -523 531 0
-517 -524 532 0
-517 -525 533 0
-517 -526 534 0
-517 -527 535 0
-49 536 0
-48 536 0
-49 -48 537 0
-47 536 0
-49 -47 537 0
-48 -47 537 0
-49 -48 -47 538 0
-46 539 0
-45 539 0
-46 -45 540 0
-44 541 0
-43 541 0
-44 -43 542 0
-42 541 0
-44 -42 542 0
-43 -42 542 0
-44 -43 -42 543 0
-539 544 0
-540 545 0
-541 544 0
-542 545 0
-543 546 0
-539 -541 545 0
-539 -542 546 0
-539 -543 547 0
-540 -541 546 0
-540 -542 547 0
-540 -543 548 0
-536 549 0
-537 550 0
-538 551 0
-544 549 0
-545 550 0
-546 551 0
-547 552 0
-548 553 0
-536 -544 550 0
-536 -545 551 0
-536 -546 552 0
-536 -547 553 0
-536 -548 554 0
-537 -544 551 0
-537 -545 552 0
-537 -546 553 0
-537 -547 554 0
-537 -548 555 0
-538 -544 552 0
-538 -545 553 0
-538 -546 554 0
-538 -547 555 0
-538 -548 556 0
-41 557 0
-40 557 0
-41 -40 558 0
-39 557 0
-41 -39 558 0
-40 -39 558 0
-41 -40 -39 559 0
-38 560 0
-50 560 0
-38 -50 561 0
-36 562 0
-35 562 0
-36 -35 563 0
-34 562 0
-36 -34 563 0
-35 -34 563 0
-36 -35 -34 564 0
-560 565 0
-561 566 0
-562 565 0
-563 566 0
-564 567 0
-560 -562 566 0
-560 -563 567 0
-560 -564 568 0
-561 -562 567 0
-561 -563 568 0
-561 -564 569 0
-557 570 0
-558 571 0
-559 572 0
-565 570 0
-566 571 0
-567 572 0
-568 573 0
-569 574 0
-557 -565 571 0
-557 -566 572 0
-557 -567 573 0
-557 -568 574 0
-557 -569 575 0
-558 -565 572 0
-558 -566 573 0
-558 -567 574 0
-558 -568 575 0
-558 -569 576 0
-559 -565 573 0
-559 -566 574 0
-559 -567 575 0
-559 -568 576 0
-559 -569 577 0
-33 578 0
-32 578 0
-33 -32 579 0
-31 578 0
-33 -31 579 0
-32 -31 579 0
-33 -32 -31 580 0
-30 581 0
-29 581 0
-30 -29 582 0
-28 583 0
-27 583 0
-28 -27 584 0
-26 583 0
-28 -26 584 0
-27 -26 584 0
-28 -27 -26 585 0
-581 586 0
-582 587 0
-583 586 0
-584 587 0
-585 588 0
-581 -583 587 0
-581 -584 588 0
-581 -585 589 0
-582 -583 588 0
-582 -584 589 0
-582 -585 590 0
-578 591 0
-579 592 0
-580 593 0
-586 591 0
-587 592 0
-588 593 0
-589 594 0
-590 595 0
-578 -586 592 0
-578 -587 593 0
-578 -588 594 0
-578 -589 595 0
-578 -590 596 0
-579 -586 593 0
-579 -587 594 0
-579 -588 595 0
-579 -589 596 0
-579 -590 597 0
-580 -586 594 0
-580 -587 595 0
-580 -588 596 0
-580 -589 597 0
-580 -590 598 0
-570 599 0
-572 600 0
-574 601 0
-576 602 0
-591 599 0
-593 600 0
-595 601 0
-597 602 0
-570 -591 600 0
-570 -593 601 0
-570 -595 602 0
-570 -597 603 0
-572 -591 601 0
-572 -593 602 0
-572 -595 603 0
-572 -597 604 0
-574 -591 602 0
-574 -593 603 0
-574 -595 604 0
-576 -591 603 0
-576 -593 604 0
-571 605 0
-575 606 0
-592 605 0
-596 606 0
-571 -592 606 0
-571 -596 607 0
-575 -592 607 0
-573 608 0
-577 609 0
-594 608 0
-598 609 0
-573 -594 609 0
-606 610 0
-608 610 0
-606 -608 611 0
-607 612 0
-609 612 0
-607 -609 613 0
-600 614 0
-605 614 0
-600 -605 615 0
-601 616 0
-610 616 0
-601 -610 617 0
-602 618 0
-611 618 0
-602 -611 619 0
-603 620 0
-612 620 0
-603 -612 621 0
-604 622 0
-613 622 0
-604 -613 623 0
-549 624 0
-551 625 0
-553 626 0
-555 627 0
-599 624 0
-615 625 0
-617 626 0
-619 627 0
-621 628 0
-623 629 0
-549 -599 625 0
-549 -615 626 0
-549 -617 627 0
-549 -619 628 0
-549 -621 629 0
-551 -599 626 0
-551 -615 627 0
-551 -617 628 0
-551 -619 629 0
-553 -599 627 0
-553 -615 628 0
-553 -617 629 0
-555 -599 628 0
-555 -615 629 0
-550 630 0
-554 631 0
-614 630 0
-618 631 0
-622 632 0
-550 -614 631 0
-550 -618 632 0
-554 -614 632 0
-552 633 0
-556 634 0
-616 633 0
-620 634 0
-552 -616 634 0
-631 635 0
-633 635 0
-631 -633 636 0
-632 637 0
-634 637 0
-632 -634 638 0
-625 639 0
-630 639 0
-625 -630 640 0
-626 641 0
-635 641 0
-626 -635 642 0
-627 643 0
-636 643 0
-627 -636 644 0
-628 645 0
-637 645 0
-628 -637 646 0
-629 647 0
-638 647 0
-629 -638 648 0
-528 649 0
-530 650 0
-532 651 0
-534 652 0
-624 649 0
-640 650 0
-642 651 0
-644 652 0
-646 653 0
-648 654 0
-528 -624 650 0
-528 -640 651 0
-528 -642 652 0
-528 -644 653 0
-528 -646 654 0
-530 -624 651 0
-530 -640 652 0
-530 -642 653 0
-530 -644 654 0
-532 -624 652 0
-532 -640 653 0
-532 -642 654 0
-534 -624 653 0
-534 -640 654 0
-529 655 0
-533 656 0
-639 655 0
-643 656 0
-647 657 0
-529 -639 656 0
-529 -643 657 0
-533 -639 657 0
-531 658 0
-535 659 0
-641 658 0
-645 659 0
-531 -641 659 0
-656 660 0
-658 660 0
-656 -658 661 0
-657 662 0
-659 662 0
-657 -659 663 0
-650 664 0
-655 664 0
-650 -655 665 0
-651 666 0
-660 666 0
-651 -660 667 0
-652 668 0
-661 668 0
-652 -661 669 0
-653 670 0
-662 670 0
-653 -662 671 0
-654 672 0
-663 672 0
-654 -663 673 0
-509 674 0
-511 675 0
-513 676 0
-649 674 0
-665 675 0
-667 676 0
-669 677 0
-671 678 0
-673 679 0
-509 -649 675 0
-509 -665 676 0
-509 -667 677 0
-509 -669 678 0
-509 -671 679 0
-511 -649 676 0
-511 -665 677 0
-511 -667 678 0
-511 -669 679 0
-513 -649 677 0
-513 -665 678 0
-513 -667 679 0
-510 680 0
-512 681 0
-514 682 0
-664 680 0
-666 681 0
-668 682 0
-670 683 0
-672 684 0
-510 -664 681 0
-510 -666 682 0
-510 -668 683 0
-510 -670 684 0
-512 -664 682 0
-512 -666 683 0
-512 -668 684 0
-514 -664 683 0
-514 -666 684 0
-675 685 0
-680 685 0
-675 -680 686 0
-676 687 0
-681 687 0
-676 -681 688 0
-677 689 0
-682 689 0
-677 -682 690 0
-678 691 0
-683 691 0
-678 -683 692 0
-679 693 0
-684 693 0
-679 -684 694 0
-497 695 0
-499 696 0
-501 697 0
-674 695 0
-686 696 0
-688 697 0
-690 698 0
-692 699 0
-694 700 0
-497 -674 696 0
-497 -686 697 0
-497 -688 698 0
-497 -690 699 0
-497 -692 700 0
-499 -674 697 0
-499 -686 698 0
-499 -688 699 0
-499 -690 700 0
-501 -674 698 0
-501 -686 699 0
-501 -688 700 0
-498 701 0
-500 702 0
-502 703 0
-685 701 0
-687 702 0
-689 703 0
-691 704 0
-693 705 0
-498 -685 702 0
-498 -687 703 0
-498 -689 704 0
-498 -691 705 0
-500 -685 703 0
-500 -687 704 0
-500 -689 705 0
-502 -685 704 0
-502 -687 705 0
-696 706 0
-701 706 0
-696 -701 707 0
-697 708 0
-702 708 0
-697 -702 709 0
-698 710 0
-703 710 0
-698 -703 711 0
-699 712 0
-704 712 0
-699 -704 713 0
-700 714 0
-705 714 0
-700 -705 715 0
-485 716 0
-487 717 0
-489 718 0
-695 716 0
-707 717 0
-709 718 0
-711 719 0
-713 720 0
-715 721 0
-485 -695 717 0
-485 -707 718 0
-485 -709 719 0
-485 -711 720 0
-485 -713 721 0
-487 -695 718 0
-487 -707 719 0
-487 -709 720 0
-487 -711 721 0
-489 -695 719 0
-489 -707 720 0
-489 -709 721 0
-486 722 0
-488 723 0
-490 724 0
-706 722 0
-708 723 0
-710 724 0
-712 725 0
-714 726 0
-486 -706 723 0
-486 -708 724 0
-486 -710 725 0
-486 -712 726 0
-488 -706 724 0
-488 -708 725 0
-488 -710 726 0
-490 -706 725 0
-490 -708 726 0
-717 727 0
-722 727 0
-717 -722 728 0
-718 729 0
-723 729 0
-718 -723 730 0
-719 731 0
-724 731 0
-719 -724 732 0
-720 733 0
-725 733 0
-720 -725 734 0
-721 735 0
-726 735 0
-721 -726 736 0
-736 0
